words_train/words_533_SAT.qaiger
aag 86 16 0 1 70
32
10
14
8
22
4
20
26
6
30
12
2
18
16
28
24
173
34 5 3
36 34 7
38 36 9
40 38 11
42 40 13
44 42 15
46 43 14
48 47 45
50 48 20
52 41 12
54 53 43
56 54 22
58 39 10
60 59 41
62 60 24
64 37 8
66 65 39
68 66 26
70 35 6
72 71 37
74 72 28
76 73 29
78 77 75
80 31 4
82 81 35
84 82 78
86 85 75
88 67 27
90 89 69
92 90 87
94 93 69
96 61 25
98 97 63
100 98 95
102 101 63
104 55 23
106 105 57
108 106 103
110 109 57
112 49 21
114 113 51
116 114 111
118 117 51
120 19 17
122 18 16
124 123 121
126 125 45
128 124 44
130 129 127
132 131 118
134 130 119
136 115 110
138 137 117
140 107 102
142 141 109
144 91 86
146 145 93
148 147 3
150 148 143
152 99 94
154 153 101
156 79 30
158 157 81
160 158 155
162 78 5
164 163 160
166 164 150
168 166 139
170 168 135
172 170 133
i0 1 x[7]
i1 2 z[4]
i2 2 z[6]
i3 2 z[3]
i4 1 x[2]
i5 2 z[1]
i6 1 x[1]
i7 1 x[4]
i8 2 z[2]
i9 1 x[6]
i10 2 z[5]
i11 2 z[0]
i12 1 x[0]
i13 2 z[7]
i14 1 x[5]
i15 1 x[3]
o0 bool[0]
c
simplified
  !=
    add
      unary minus
        2 z
      or
        reverse
          1 x
        1
    1
