words_train/words_533_SAT.qaiger.qdimacs
p cnf 86 211
a 9 10 11 12 13 14 15 16 0
e 1 2 3 4 5 6 7 8 17 18 19 20 21 22 23 24 25 26 27 28 29 30 31 32 33 34 35 36 37 38 39 40 41 42 43 44 45 46 47 48 49 50 51 52 53 54 55 56 57 58 59 60 61 62 63 64 65 66 67 68 69 70 71 72 73 74 75 76 77 78 79 80 81 82 83 84 85 86 0
2 1 17 0
-2 -17 0
-1 -17 0
-17 3 18 0
17 -18 0
-3 -18 0
-18 4 19 0
18 -19 0
-4 -19 0
-19 5 20 0
19 -20 0
-5 -20 0
-20 6 21 0
20 -21 0
-6 -21 0
-21 7 22 0
21 -22 0
-7 -22 0
21 -7 23 0
-21 -23 0
7 -23 0
23 22 24 0
-23 -24 0
-22 -24 0
-24 -10 25 0
24 -25 0
10 -25 0
20 -6 26 0
-20 -26 0
6 -26 0
26 21 27 0
-26 -27 0
-21 -27 0
-27 -11 28 0
27 -28 0
11 -28 0
19 -5 29 0
-19 -29 0
5 -29 0
29 20 30 0
-29 -30 0
-20 -30 0
-30 -12 31 0
30 -31 0
12 -31 0
18 -4 32 0
-18 -32 0
4 -32 0
32 19 33 0
-32 -33 0
-19 -33 0
-33 -13 34 0
33 -34 0
13 -34 0
17 -3 35 0
-17 -35 0
3 -35 0
35 18 36 0
-35 -36 0
-18 -36 0
-36 -14 37 0
36 -37 0
14 -37 0
36 14 38 0
-36 -38 0
-14 -38 0
38 37 39 0
-38 -39 0
-37 -39 0
15 -2 40 0
-15 -40 0
2 -40 0
40 17 41 0
-40 -41 0
-17 -41 0
-41 -39 42 0
41 -42 0
39 -42 0
42 37 43 0
-42 -43 0
-37 -43 0
33 13 44 0
-33 -44 0
-13 -44 0
44 34 45 0
-44 -45 0
-34 -45 0
-45 43 46 0
45 -46 0
-43 -46 0
46 34 47 0
-46 -47 0
-34 -47 0
30 12 48 0
-30 -48 0
-12 -48 0
48 31 49 0
-48 -49 0
-31 -49 0
-49 47 50 0
49 -50 0
-47 -50 0
50 31 51 0
-50 -51 0
-31 -51 0
27 11 52 0
-27 -52 0
-11 -52 0
52 28 53 0
-52 -53 0
-28 -53 0
-53 51 54 0
53 -54 0
-51 -54 0
54 28 55 0
-54 -55 0
-28 -55 0
24 10 56 0
-24 -56 0
-10 -56 0
56 25 57 0
-56 -57 0
-25 -57 0
-57 55 58 0
57 -58 0
-55 -58 0
58 25 59 0
-58 -59 0
-25 -59 0
9 8 60 0
-9 -60 0
-8 -60 0
-9 -8 61 0
9 -61 0
8 -61 0
61 60 62 0
-61 -62 0
-60 -62 0
62 22 63 0
-62 -63 0
-22 -63 0
-62 -22 64 0
62 -64 0
22 -64 0
64 63 65 0
-64 -65 0
-63 -65 0
65 -59 66 0
-65 -66 0
59 -66 0
-65 59 67 0
65 -67 0
-59 -67 0
57 -55 68 0
-57 -68 0
55 -68 0
68 58 69 0
-68 -69 0
-58 -69 0
53 -51 70 0
-53 -70 0
51 -70 0
70 54 71 0
-70 -71 0
-54 -71 0
45 -43 72 0
-45 -72 0
43 -72 0
72 46 73 0
-72 -73 0
-46 -73 0
73 1 74 0
-73 -74 0
-1 -74 0
-74 71 75 0
74 -75 0
-71 -75 0
49 -47 76 0
-49 -76 0
47 -76 0
76 50 77 0
-76 -77 0
-50 -77 0
39 -15 78 0
-39 -78 0
15 -78 0
78 40 79 0
-78 -79 0
-40 -79 0
-79 77 80 0
79 -80 0
-77 -80 0
-39 2 81 0
39 -81 0
-2 -81 0
81 -80 82 0
-81 -82 0
80 -82 0
-82 -75 83 0
82 -83 0
75 -83 0
-83 69 84 0
83 -84 0
-69 -84 0
-84 67 85 0
84 -85 0
-67 -85 0
-85 66 86 0
85 -86 0
-66 -86 0
-86 0
